NAME           ITEST6
*****************************************************
* REMARK: Generated by LSwriteMPSFile() routine for 
* a maximization type problem.
*
* The objective coefficients have flipped signs. 
* Interpret the objective value from the solution of
* this model accordingly.
*****************************************************
ROWS
 N       OBJ
 L  X1
 L  X2
 L  X3
 L  X4
 L  X5
 L  X6
 L  X7
 L  X8
COLUMNS
    ROW1       OBJ  -10000
    ROW1  X3  0.80000000000000004
    ROW1  X4  1
    ROW2       OBJ  -90000
    ROW2  X1  1
    ROW3       OBJ  -10000
    ROW3  X6  2
    ROW3  X8  -1
    ROW4       OBJ  -50000
    ROW4  X2  -1
    ROW4  X3  1
    ROW5       OBJ  -87000
    ROW5  X2  -1
    ROW5  X4  1
    ROW6       OBJ  -50000
    ROW6  X3  1
    ROW7       OBJ  -10000
    ROW7  X5  -3
    ROW7  X7  1
    ROW8       OBJ  -300000
    ROW8  X5  0.5
    ROW8  X6  0.59999999999999998
    ROW9       OBJ  -5000
    ROW9  X2  1
    ROW9  X3  -0.050000000000000003
    ROW10       OBJ  -4500
    ROW10  X2  1
    ROW10  X3  -0.040000000000000001
    ROW10  X4  -0.050000000000000003
    ROW11       OBJ  -80000
    ROW11  X2  1
RHS
    RHS1      X2  1
    RHS1      X3  1
    RHS1      X4  1
BOUNDS
 MI BND1      ROW1
 UP BND1      ROW1  0
 MI BND1      ROW2
 UP BND1      ROW2  0
 MI BND1      ROW3
 UP BND1      ROW3  0
 MI BND1      ROW6
 UP BND1      ROW6  0
 MI BND1      ROW8
 UP BND1      ROW8  0
 FR BND1      ROW9
 FR BND1      ROW10
ENDATA
